Janus MoSSe monolayer
   1.00000000000000
     3.2494313510729644   -0.0000000000012134    0.0000000000000000
    -1.6247156755885783    2.8140900979212886    0.0000000000000000
     0.0000000000000000    0.0000000000000000   20.3788320883352547
   Mo   S    Se
     1     1     1
Direct
  0.6666659710000005  0.3333339989999970  0.4971190116673725
  0.3333329860000021  0.6666669849999991  0.4221241512888199
  0.3333329860000021  0.6666669849999991  0.5807568370438076
